96 55 82 45 80 3 52 83 2 58 92 4 9 97 79 27 84 46 68 31 33 11 30 18 88 71 62 67 60 34 87 53 37 47 57 8 95 23 48 20 29 63 14 72 24 89 56 54 16 28 66 21 85 43 38 5 94 86 10 59 17 32 44 90 25 13 91 39 81 61 77 64 36 15 70 76 99 12 40 69 74 73 41 78 65 1 7 19 0 50 75 93 6 51 42 35 22 98 26 49 

